\ENCODING=ISO-8859-1
\Problem name: SVM

Minimize
 obj: 0.001 ksi0 + 0.001 ksi1 + 0.001 ksi2 + 0.001 ksi3 + 0.001 ksi4
      + 0.001 ksi5 + 0.001 ksi6 + 0.001 ksi7 + 0.001 ksi8 + 0.001 ksi9
      + 0.001 ksi10 + 0.001 ksi11 + 0.001 ksi12 + 0.001 ksi13 + 0.001 ksi14
      + 0.001 ksi15 + 0.001 ksi16 + 0.001 ksi17 + 0.001 ksi18 + 0.001 ksi19
      + 0.001 ksi20 + 0.001 ksi21 + 0.001 ksi22 + 0.001 ksi23 + 0.001 ksi24
      + 0.001 ksi25 + 0.001 ksi26 + 0.001 ksi27 + 0.001 ksi28 + 0.001 ksi29
      + 0.001 ksi30 + 0.001 ksi31 + 0.001 ksi32 + 0.001 ksi33 + 0.001 ksi34
      + 0.001 ksi35 + 0.001 ksi36 + 0.001 ksi37 + 0.001 ksi38 + 0.001 ksi39
      + 0.001 ksi40 + 0.001 ksi41 + 0.001 ksi42 + 0.001 ksi43 + 0.001 ksi44
      + 0.001 ksi45 + 0.001 ksi46 + 0.001 ksi47 + 0.001 ksi48 + 0.001 ksi49
      + 0.001 ksi50 + 0.001 ksi51 + 0.001 ksi52 + 0.001 ksi53 + 0.001 ksi54
      + 0.001 ksi55 + 0.001 ksi56 + 0.001 ksi57 + 0.001 ksi58 + 0.001 ksi59
      + 0.001 ksi60 + 0.001 ksi61 + 0.001 ksi62 + 0.001 ksi63 + 0.001 ksi64
      + 0.001 ksi65 + 0.001 ksi66 + 0.001 ksi67 + 0.001 ksi68 + 0.001 ksi69
      + 0.001 ksi70 + 0.001 ksi71 + 0.001 ksi72 + 0.001 ksi73 + 0.001 ksi74
      + 0.001 ksi75 + 0.001 ksi76 + 0.001 ksi77 + 0.001 ksi78 + 0.001 ksi79
      + 0.001 ksi80 + 0.001 ksi81 + 0.001 ksi82 + 0.001 ksi83 + 0.001 ksi84
      + 0.001 ksi85 + 0.001 ksi86 + 0.001 ksi87 + 0.001 ksi88 + 0.001 ksi89
      + 0.001 ksi90 + 0.001 ksi91 + 0.001 ksi92 + 0.001 ksi93 + 0.001 ksi94
      + 0.001 ksi95 + 0.001 ksi96 + 0.001 ksi97 + 0.001 ksi98 + 0.001 ksi99
      + 0.001 ksi100 + 0.001 ksi101 + 0.001 ksi102 + 0.001 ksi103
      + 0.001 ksi104 + 0.001 ksi105 + 0.001 ksi106 + 0.001 ksi107
      + 0.001 ksi108 + 0.001 ksi109 + 0.001 ksi110 + 0.001 ksi111
      + 0.001 ksi112 + 0.001 ksi113 + 0.001 ksi114 + 0.001 ksi115
      + 0.001 ksi116 + 0.001 ksi117 + 0.001 ksi118 + 0.001 ksi119
      + 0.001 ksi120 + 0.001 ksi121 + 0.001 ksi122 + 0.001 ksi123
      + 0.001 ksi124 + 0.001 ksi125 + 0.001 ksi126 + 0.001 ksi127
      + 0.001 ksi128 + 0.001 ksi129 + 0.001 ksi130 + 0.001 ksi131
      + 0.001 ksi132 + 0.001 ksi133 + 0.001 ksi134 + 0.001 ksi135
      + 0.001 ksi136 + 0.001 ksi137 + 0.001 ksi138 + 0.001 ksi139
      + 0.001 ksi140 + 0.001 ksi141 + 0.001 ksi142 + 0.001 ksi143
      + 0.001 ksi144 + 0.001 ksi145 + 0.001 ksi146 + 0.001 ksi147
      + 0.001 ksi148 + 0.001 ksi149 + 0.001 ksi150 + 0.001 ksi151
      + 0.001 ksi152 + 0.001 ksi153 + 0.001 ksi154 + 0.001 ksi155
      + 0.001 ksi156 + 0.001 ksi157 + 0.001 ksi158 + 0.001 ksi159
      + 0.001 ksi160 + 0.001 ksi161 + 0.001 ksi162 + 0.001 ksi163
      + 0.001 ksi164 + 0.001 ksi165 + 0.001 ksi166 + 0.001 ksi167
      + 0.001 ksi168 + 0.001 ksi169 + 0.001 ksi170 + 0.001 ksi171
      + 0.001 ksi172 + 0.001 ksi173 + 0.001 ksi174 + 0.001 ksi175
      + 0.001 ksi176 + 0.001 ksi177 + 0.001 ksi178 + 0.001 ksi179
      + 0.001 ksi180 + 0.001 ksi181 + 0.001 ksi182 + 0.001 ksi183
      + 0.001 ksi184 + 0.001 ksi185 + 0.001 ksi186 + 0.001 ksi187
      + 0.001 ksi188 + 0.001 ksi189 + 0.001 ksi190 + 0.001 ksi191
      + 0.001 ksi192 + 0.001 ksi193 + 0.001 ksi194 + 0.001 ksi195
      + 0.001 ksi196 + 0.001 ksi197 + 0.001 ksi198 + 0.001 ksi199
      + 0.001 ksi200 + 0.001 ksi201 + 0.001 ksi202 + 0.001 ksi203
      + 0.001 ksi204 + 0.001 ksi205 + 0.001 ksi206 + 0.001 ksi207
      + 0.001 ksi208 + 0.001 ksi209 + 0.001 ksi210 + 0.001 ksi211
      + 0.001 ksi212 + 0.001 ksi213 + 0.001 ksi214 + 0.001 ksi215
      + 0.001 ksi216 + 0.001 ksi217 + 0.001 ksi218 + 0.001 ksi219
      + 0.001 ksi220 + 0.001 ksi221 + 0.001 ksi222 + 0.001 ksi223
      + 0.001 ksi224 + 0.001 ksi225 + 0.001 ksi226 + 0.001 ksi227
      + 0.001 ksi228 + 0.001 ksi229 + 0.001 ksi230 + 0.001 ksi231
      + 0.001 ksi232 + 0.001 ksi233 + 0.001 ksi234 + 0.001 ksi235
      + 0.001 ksi236 + 0.001 ksi237 + 0.001 ksi238 + 0.001 ksi239
      + 0.001 ksi240 + 0.001 ksi241 + 0.001 ksi242 + 0.001 ksi243
      + 0.001 ksi244 + 0.001 ksi245 + 0.001 ksi246 + 0.001 ksi247
      + 0.001 ksi248 + 0.001 ksi249 + 0.001 ksi250 + 0.001 ksi251
      + 0.001 ksi252 + 0.001 ksi253 + 0.001 ksi254 + 0.001 ksi255
      + 0.001 ksi256 + 0.001 ksi257 + 0.001 ksi258 + 0.001 ksi259
      + 0.001 ksi260 + 0.001 ksi261 + 0.001 ksi262 + 0.001 ksi263
      + 0.001 ksi264 + 0.001 ksi265 + 0.001 ksi266 + 0.001 ksi267
      + 0.001 ksi268 + 0.001 ksi269 + 0.001 ksi270 + 0.001 ksi271
      + 0.001 ksi272 + 0.001 ksi273 + 0.001 ksi274 + 0.001 ksi275
      + 0.001 ksi276 + 0.001 ksi277 + 0.001 ksi278 + 0.001 ksi279
      + 0.001 ksi280 + 0.001 ksi281 + 0.001 ksi282 + 0.001 ksi283
      + 0.001 ksi284 + 0.001 ksi285 + 0.001 ksi286 + 0.001 ksi287
      + 0.001 ksi288 + 0.001 ksi289 + 0.001 ksi290 + 0.001 ksi291
      + 0.001 ksi292 + 0.001 ksi293 + 0.001 ksi294 + 0.001 ksi295
      + 0.001 ksi296 + 0.001 ksi297 + 0.001 ksi298 + 0.001 ksi299
      + 0.001 ksi300 + 0.001 ksi301 + 0.001 ksi302 + 0.001 ksi303
      + 0.001 ksi304 + 0.001 ksi305 + 0.001 ksi306 + 0.001 ksi307
      + 0.001 ksi308 + 0.001 ksi309 + [ w0 ^2 + w1 ^2 + w2 ^2 + w3 ^2 + w4 ^2
      + w5 ^2 + w6 ^2 + w7 ^2 ] / 2
Subject To
 c1:   - 6 w0 - 148 w1 - 72 w2 - 35 w3 - 33.6 w5 - 0.627 w6 - 50 w7 - b + ksi0
       >= 1
 c2:   w0 + 85 w1 + 66 w2 + 29 w3 + 26.6 w5 + 0.351 w6 + 31 w7 + b + ksi1 >= 1
 c3:   - 8 w0 - 183 w1 - 64 w2 - 23.3 w5 - 0.672 w6 - 32 w7 - b + ksi2 >= 1
 c4:   w0 + 89 w1 + 66 w2 + 23 w3 + 94 w4 + 28.1 w5 + 0.167 w6 + 21 w7 + b
       + ksi3 >= 1
 c5:   - 137 w1 - 40 w2 - 35 w3 - 168 w4 - 43.1 w5 - 2.288 w6 - 33 w7 - b
       + ksi4 >= 1
 c6:   5 w0 + 116 w1 + 74 w2 + 25.6 w5 + 0.201 w6 + 30 w7 + b + ksi5 >= 1
 c7:   - 3 w0 - 78 w1 - 50 w2 - 32 w3 - 88 w4 - 31 w5 - 0.248 w6 - 26 w7 - b
       + ksi6 >= 1
 c8:   10 w0 + 115 w1 + 35.3 w5 + 0.134 w6 + 29 w7 + b + ksi7 >= 1
 c9:   - 2 w0 - 197 w1 - 70 w2 - 45 w3 - 543 w4 - 30.5 w5 - 0.158 w6 - 53 w7
       - b + ksi8 >= 1
 c10:  - 8 w0 - 125 w1 - 96 w2 - 0.232 w6 - 54 w7 - b + ksi9 >= 1
 c11:  4 w0 + 110 w1 + 92 w2 + 37.6 w5 + 0.191 w6 + 30 w7 + b + ksi10 >= 1
 c12:  - 10 w0 - 168 w1 - 74 w2 - 38 w5 - 0.537 w6 - 34 w7 - b + ksi11 >= 1
 c13:  10 w0 + 139 w1 + 80 w2 + 27.1 w5 + 1.441 w6 + 57 w7 + b + ksi12 >= 1
 c14:  - w0 - 189 w1 - 60 w2 - 23 w3 - 846 w4 - 30.1 w5 - 0.398 w6 - 59 w7 - b
       + ksi13 >= 1
 c15:  - 5 w0 - 166 w1 - 72 w2 - 19 w3 - 175 w4 - 25.8 w5 - 0.587 w6 - 51 w7
       - b + ksi14 >= 1
 c16:  - 7 w0 - 100 w1 - 30 w5 - 0.484 w6 - 32 w7 - b + ksi15 >= 1
 c17:  - 118 w1 - 84 w2 - 47 w3 - 230 w4 - 45.8 w5 - 0.551 w6 - 31 w7 - b
       + ksi16 >= 1
 c18:  - 7 w0 - 107 w1 - 74 w2 - 29.6 w5 - 0.254 w6 - 31 w7 - b + ksi17 >= 1
 c19:  w0 + 103 w1 + 30 w2 + 38 w3 + 83 w4 + 43.3 w5 + 0.183 w6 + 33 w7 + b
       + ksi18 >= 1
 c20:  - w0 - 115 w1 - 70 w2 - 30 w3 - 96 w4 - 34.6 w5 - 0.529 w6 - 32 w7 - b
       + ksi19 >= 1
 c21:  3 w0 + 126 w1 + 88 w2 + 41 w3 + 235 w4 + 39.3 w5 + 0.704 w6 + 27 w7 + b
       + ksi20 >= 1
 c22:  8 w0 + 99 w1 + 84 w2 + 35.4 w5 + 0.388 w6 + 50 w7 + b + ksi21 >= 1
 c23:  - 7 w0 - 196 w1 - 90 w2 - 39.8 w5 - 0.451 w6 - 41 w7 - b + ksi22 >= 1
 c24:  - 9 w0 - 119 w1 - 80 w2 - 35 w3 - 29 w5 - 0.263 w6 - 29 w7 - b + ksi23
       >= 1
 c25:  - 11 w0 - 143 w1 - 94 w2 - 33 w3 - 146 w4 - 36.6 w5 - 0.254 w6 - 51 w7
       - b + ksi24 >= 1
 c26:  - 10 w0 - 125 w1 - 70 w2 - 26 w3 - 115 w4 - 31.1 w5 - 0.205 w6 - 41 w7
       - b + ksi25 >= 1
 c27:  - 7 w0 - 147 w1 - 76 w2 - 39.4 w5 - 0.257 w6 - 43 w7 - b + ksi26 >= 1
 c28:  w0 + 97 w1 + 66 w2 + 15 w3 + 140 w4 + 23.2 w5 + 0.487 w6 + 22 w7 + b
       + ksi27 >= 1
 c29:  13 w0 + 145 w1 + 82 w2 + 19 w3 + 110 w4 + 22.2 w5 + 0.245 w6 + 57 w7 + b
       + ksi28 >= 1
 c30:  5 w0 + 117 w1 + 92 w2 + 34.1 w5 + 0.337 w6 + 38 w7 + b + ksi29 >= 1
 c31:  5 w0 + 109 w1 + 75 w2 + 26 w3 + 36 w5 + 0.546 w6 + 60 w7 + b + ksi30
       >= 1
 c32:  - 3 w0 - 158 w1 - 76 w2 - 36 w3 - 245 w4 - 31.6 w5 - 0.851 w6 - 28 w7
       - b + ksi31 >= 1
 c33:  3 w0 + 88 w1 + 58 w2 + 11 w3 + 54 w4 + 24.8 w5 + 0.267 w6 + 22 w7 + b
       + ksi32 >= 1
 c34:  6 w0 + 92 w1 + 92 w2 + 19.9 w5 + 0.188 w6 + 28 w7 + b + ksi33 >= 1
 c35:  10 w0 + 122 w1 + 78 w2 + 31 w3 + 27.6 w5 + 0.512 w6 + 45 w7 + b + ksi34
       >= 1
 c36:  4 w0 + 103 w1 + 60 w2 + 33 w3 + 192 w4 + 24 w5 + 0.966 w6 + 33 w7 + b
       + ksi35 >= 1
 c37:  11 w0 + 138 w1 + 76 w2 + 33.2 w5 + 0.42 w6 + 35 w7 + b + ksi36 >= 1
 c38:  - 9 w0 - 102 w1 - 76 w2 - 37 w3 - 32.9 w5 - 0.665 w6 - 46 w7 - b + ksi37
       >= 1
 c39:  - 2 w0 - 90 w1 - 68 w2 - 42 w3 - 38.2 w5 - 0.503 w6 - 27 w7 - b + ksi38
       >= 1
 c40:  - 4 w0 - 111 w1 - 72 w2 - 47 w3 - 207 w4 - 37.1 w5 - 1.39 w6 - 56 w7 - b
       + ksi39 >= 1
 c41:  3 w0 + 180 w1 + 64 w2 + 25 w3 + 70 w4 + 34 w5 + 0.271 w6 + 26 w7 + b
       + ksi40 >= 1
 c42:  7 w0 + 133 w1 + 84 w2 + 40.2 w5 + 0.696 w6 + 37 w7 + b + ksi41 >= 1
 c43:  7 w0 + 106 w1 + 92 w2 + 18 w3 + 22.7 w5 + 0.235 w6 + 48 w7 + b + ksi42
       >= 1
 c44:  - 9 w0 - 171 w1 - 110 w2 - 24 w3 - 240 w4 - 45.4 w5 - 0.721 w6 - 54 w7
       - b + ksi43 >= 1
 c45:  7 w0 + 159 w1 + 64 w2 + 27.4 w5 + 0.294 w6 + 40 w7 + b + ksi44 >= 1
 c46:  - 180 w1 - 66 w2 - 39 w3 - 42 w5 - 1.893 w6 - 25 w7 - b + ksi45 >= 1
 c47:  w0 + 146 w1 + 56 w2 + 29.7 w5 + 0.564 w6 + 29 w7 + b + ksi46 >= 1
 c48:  2 w0 + 71 w1 + 70 w2 + 27 w3 + 28 w5 + 0.586 w6 + 22 w7 + b + ksi47 >= 1
 c49:  - 7 w0 - 103 w1 - 66 w2 - 32 w3 - 39.1 w5 - 0.344 w6 - 31 w7 - b + ksi48
       >= 1
 c50:  7 w0 + 105 w1 + 0.305 w6 + 24 w7 + b + ksi49 >= 1
 c51:  w0 + 103 w1 + 80 w2 + 11 w3 + 82 w4 + 19.4 w5 + 0.491 w6 + 22 w7 + b
       + ksi50 >= 1
 c52:  w0 + 101 w1 + 50 w2 + 15 w3 + 36 w4 + 24.2 w5 + 0.526 w6 + 26 w7 + b
       + ksi51 >= 1
 c53:  5 w0 + 88 w1 + 66 w2 + 21 w3 + 23 w4 + 24.4 w5 + 0.342 w6 + 30 w7 + b
       + ksi52 >= 1
 c54:  - 8 w0 - 176 w1 - 90 w2 - 34 w3 - 300 w4 - 33.7 w5 - 0.467 w6 - 58 w7
       - b + ksi53 >= 1
 c55:  7 w0 + 150 w1 + 66 w2 + 42 w3 + 342 w4 + 34.7 w5 + 0.718 w6 + 42 w7 + b
       + ksi54 >= 1
 c56:  w0 + 73 w1 + 50 w2 + 10 w3 + 23 w5 + 0.248 w6 + 21 w7 + b + ksi55 >= 1
 c57:  - 7 w0 - 187 w1 - 68 w2 - 39 w3 - 304 w4 - 37.7 w5 - 0.254 w6 - 41 w7
       - b + ksi56 >= 1
 c58:  100 w1 + 88 w2 + 60 w3 + 110 w4 + 46.8 w5 + 0.962 w6 + 31 w7 + b + ksi57
       >= 1
 c59:  146 w1 + 82 w2 + 40.5 w5 + 1.781 w6 + 44 w7 + b + ksi58 >= 1
 c60:  105 w1 + 64 w2 + 41 w3 + 142 w4 + 41.5 w5 + 0.173 w6 + 22 w7 + b + ksi59
       >= 1
 c61:  2 w0 + 84 w1 + 0.304 w6 + 21 w7 + b + ksi60 >= 1
 c62:  - 8 w0 - 133 w1 - 72 w2 - 32.9 w5 - 0.27 w6 - 39 w7 - b + ksi61 >= 1
 c63:  5 w0 + 44 w1 + 62 w2 + 25 w5 + 0.587 w6 + 36 w7 + b + ksi62 >= 1
 c64:  2 w0 + 141 w1 + 58 w2 + 34 w3 + 128 w4 + 25.4 w5 + 0.699 w6 + 24 w7 + b
       + ksi63 >= 1
 c65:  - 7 w0 - 114 w1 - 66 w2 - 32.8 w5 - 0.258 w6 - 42 w7 - b + ksi64 >= 1
 c66:  5 w0 + 99 w1 + 74 w2 + 27 w3 + 29 w5 + 0.203 w6 + 32 w7 + b + ksi65 >= 1
 c67:  - 109 w1 - 88 w2 - 30 w3 - 32.5 w5 - 0.855 w6 - 38 w7 - b + ksi66 >= 1
 c68:  2 w0 + 109 w1 + 92 w2 + 42.7 w5 + 0.845 w6 + 54 w7 + b + ksi67 >= 1
 c69:  w0 + 95 w1 + 66 w2 + 13 w3 + 38 w4 + 19.6 w5 + 0.334 w6 + 25 w7 + b
       + ksi68 >= 1
 c70:  4 w0 + 146 w1 + 85 w2 + 27 w3 + 100 w4 + 28.9 w5 + 0.189 w6 + 27 w7 + b
       + ksi69 >= 1
 c71:  - 2 w0 - 100 w1 - 66 w2 - 20 w3 - 90 w4 - 32.9 w5 - 0.867 w6 - 28 w7 - b
       + ksi70 >= 1
 c72:  5 w0 + 139 w1 + 64 w2 + 35 w3 + 140 w4 + 28.6 w5 + 0.411 w6 + 26 w7 + b
       + ksi71 >= 1
 c73:  - 13 w0 - 126 w1 - 90 w2 - 43.4 w5 - 0.583 w6 - 42 w7 - b + ksi72 >= 1
 c74:  4 w0 + 129 w1 + 86 w2 + 20 w3 + 270 w4 + 35.1 w5 + 0.231 w6 + 23 w7 + b
       + ksi73 >= 1
 c75:  w0 + 79 w1 + 75 w2 + 30 w3 + 32 w5 + 0.396 w6 + 22 w7 + b + ksi74 >= 1
 c76:  w0 + 48 w2 + 20 w3 + 24.7 w5 + 0.14 w6 + 22 w7 + b + ksi75 >= 1
 c77:  7 w0 + 62 w1 + 78 w2 + 32.6 w5 + 0.391 w6 + 41 w7 + b + ksi76 >= 1
 c78:  5 w0 + 95 w1 + 72 w2 + 33 w3 + 37.7 w5 + 0.37 w6 + 27 w7 + b + ksi77
       >= 1
 c79:  - 131 w1 - 43.2 w5 - 0.27 w6 - 26 w7 - b + ksi78 >= 1
 c80:  2 w0 + 112 w1 + 66 w2 + 22 w3 + 25 w5 + 0.307 w6 + 24 w7 + b + ksi79
       >= 1
 c81:  3 w0 + 113 w1 + 44 w2 + 13 w3 + 22.4 w5 + 0.14 w6 + 22 w7 + b + ksi80
       >= 1
 c82:  2 w0 + 74 w1 + 0.102 w6 + 22 w7 + b + ksi81 >= 1
 c83:  7 w0 + 83 w1 + 78 w2 + 26 w3 + 71 w4 + 29.3 w5 + 0.767 w6 + 36 w7 + b
       + ksi82 >= 1
 c84:  101 w1 + 65 w2 + 28 w3 + 24.6 w5 + 0.237 w6 + 22 w7 + b + ksi83 >= 1
 c85:  - 5 w0 - 137 w1 - 108 w2 - 48.8 w5 - 0.227 w6 - 37 w7 - b + ksi84 >= 1
 c86:  2 w0 + 110 w1 + 74 w2 + 29 w3 + 125 w4 + 32.4 w5 + 0.698 w6 + 27 w7 + b
       + ksi85 >= 1
 c87:  13 w0 + 106 w1 + 72 w2 + 54 w3 + 36.6 w5 + 0.178 w6 + 45 w7 + b + ksi86
       >= 1
 c88:  2 w0 + 100 w1 + 68 w2 + 25 w3 + 71 w4 + 38.5 w5 + 0.324 w6 + 26 w7 + b
       + ksi87 >= 1
 c89:  - 15 w0 - 136 w1 - 70 w2 - 32 w3 - 110 w4 - 37.1 w5 - 0.153 w6 - 43 w7
       - b + ksi88 >= 1
 c90:  w0 + 107 w1 + 68 w2 + 19 w3 + 26.5 w5 + 0.165 w6 + 24 w7 + b + ksi89
       >= 1
 c91:  w0 + 80 w1 + 55 w2 + 19.1 w5 + 0.258 w6 + 21 w7 + b + ksi90 >= 1
 c92:  4 w0 + 123 w1 + 80 w2 + 15 w3 + 176 w4 + 32 w5 + 0.443 w6 + 34 w7 + b
       + ksi91 >= 1
 c93:  7 w0 + 81 w1 + 78 w2 + 40 w3 + 48 w4 + 46.7 w5 + 0.261 w6 + 42 w7 + b
       + ksi92 >= 1
 c94:  - 4 w0 - 134 w1 - 72 w2 - 23.8 w5 - 0.277 w6 - 60 w7 - b + ksi93 >= 1
 c95:  2 w0 + 142 w1 + 82 w2 + 18 w3 + 64 w4 + 24.7 w5 + 0.761 w6 + 21 w7 + b
       + ksi94 >= 1
 c96:  6 w0 + 144 w1 + 72 w2 + 27 w3 + 228 w4 + 33.9 w5 + 0.255 w6 + 40 w7 + b
       + ksi95 >= 1
 c97:  2 w0 + 92 w1 + 62 w2 + 28 w3 + 31.6 w5 + 0.13 w6 + 24 w7 + b + ksi96
       >= 1
 c98:  w0 + 71 w1 + 48 w2 + 18 w3 + 76 w4 + 20.4 w5 + 0.323 w6 + 22 w7 + b
       + ksi97 >= 1
 c99:  6 w0 + 93 w1 + 50 w2 + 30 w3 + 64 w4 + 28.7 w5 + 0.356 w6 + 23 w7 + b
       + ksi98 >= 1
 c100: - w0 - 122 w1 - 90 w2 - 51 w3 - 220 w4 - 49.7 w5 - 0.325 w6 - 31 w7 - b
       + ksi99 >= 1
 c101: - w0 - 163 w1 - 72 w2 - 39 w5 - 1.222 w6 - 33 w7 - b + ksi100 >= 1
 c102: w0 + 151 w1 + 60 w2 + 26.1 w5 + 0.179 w6 + 22 w7 + b + ksi101 >= 1
 c103: 125 w1 + 96 w2 + 22.5 w5 + 0.262 w6 + 21 w7 + b + ksi102 >= 1
 c104: w0 + 81 w1 + 72 w2 + 18 w3 + 40 w4 + 26.6 w5 + 0.283 w6 + 24 w7 + b
       + ksi103 >= 1
 c105: 2 w0 + 85 w1 + 65 w2 + 39.6 w5 + 0.93 w6 + 27 w7 + b + ksi104 >= 1
 c106: w0 + 126 w1 + 56 w2 + 29 w3 + 152 w4 + 28.7 w5 + 0.801 w6 + 21 w7 + b
       + ksi105 >= 1
 c107: w0 + 96 w1 + 122 w2 + 22.4 w5 + 0.207 w6 + 27 w7 + b + ksi106 >= 1
 c108: 4 w0 + 144 w1 + 58 w2 + 28 w3 + 140 w4 + 29.5 w5 + 0.287 w6 + 37 w7 + b
       + ksi107 >= 1
 c109: 3 w0 + 83 w1 + 58 w2 + 31 w3 + 18 w4 + 34.3 w5 + 0.336 w6 + 25 w7 + b
       + ksi108 >= 1
 c110: - 95 w1 - 85 w2 - 25 w3 - 36 w4 - 37.4 w5 - 0.247 w6 - 24 w7 - b
       + ksi109 >= 1
 c111: - 3 w0 - 171 w1 - 72 w2 - 33 w3 - 135 w4 - 33.3 w5 - 0.199 w6 - 24 w7
       - b + ksi110 >= 1
 c112: - 8 w0 - 155 w1 - 62 w2 - 26 w3 - 495 w4 - 34 w5 - 0.543 w6 - 46 w7 - b
       + ksi111 >= 1
 c113: w0 + 89 w1 + 76 w2 + 34 w3 + 37 w4 + 31.2 w5 + 0.192 w6 + 23 w7 + b
       + ksi112 >= 1
 c114: 4 w0 + 76 w1 + 62 w2 + 34 w5 + 0.391 w6 + 25 w7 + b + ksi113 >= 1
 c115: - 7 w0 - 160 w1 - 54 w2 - 32 w3 - 175 w4 - 30.5 w5 - 0.588 w6 - 39 w7
       - b + ksi114 >= 1
 c116: - 4 w0 - 146 w1 - 92 w2 - 31.2 w5 - 0.539 w6 - 61 w7 - b + ksi115 >= 1
 c117: - 5 w0 - 124 w1 - 74 w2 - 34 w5 - 0.22 w6 - 38 w7 - b + ksi116 >= 1
 c118: 5 w0 + 78 w1 + 48 w2 + 33.7 w5 + 0.654 w6 + 25 w7 + b + ksi117 >= 1
 c119: 4 w0 + 97 w1 + 60 w2 + 23 w3 + 28.2 w5 + 0.443 w6 + 22 w7 + b + ksi118
       >= 1
 c120: 4 w0 + 99 w1 + 76 w2 + 15 w3 + 51 w4 + 23.2 w5 + 0.223 w6 + 21 w7 + b
       + ksi119 >= 1
 c121: - 162 w1 - 76 w2 - 56 w3 - 100 w4 - 53.2 w5 - 0.759 w6 - 25 w7 - b
       + ksi120 >= 1
 c122: 6 w0 + 111 w1 + 64 w2 + 39 w3 + 34.2 w5 + 0.26 w6 + 24 w7 + b + ksi121
       >= 1
 c123: 2 w0 + 107 w1 + 74 w2 + 30 w3 + 100 w4 + 33.6 w5 + 0.404 w6 + 23 w7 + b
       + ksi122 >= 1
 c124: 5 w0 + 132 w1 + 80 w2 + 26.8 w5 + 0.186 w6 + 69 w7 + b + ksi123 >= 1
 c125: - 113 w1 - 76 w2 - 33.3 w5 - 0.278 w6 - 23 w7 - b + ksi124 >= 1
 c126: - w0 - 88 w1 - 30 w2 - 42 w3 - 99 w4 - 55 w5 - 0.496 w6 - 26 w7 - b
       + ksi125 >= 1
 c127: 3 w0 + 120 w1 + 70 w2 + 30 w3 + 135 w4 + 42.9 w5 + 0.452 w6 + 30 w7 + b
       + ksi126 >= 1
 c128: w0 + 118 w1 + 58 w2 + 36 w3 + 94 w4 + 33.3 w5 + 0.261 w6 + 23 w7 + b
       + ksi127 >= 1
 c129: - w0 - 117 w1 - 88 w2 - 24 w3 - 145 w4 - 34.5 w5 - 0.403 w6 - 40 w7 - b
       + ksi128 >= 1
 c130: - 105 w1 - 84 w2 - 27.9 w5 - 0.741 w6 - 62 w7 - b + ksi129 >= 1
 c131: - 4 w0 - 173 w1 - 70 w2 - 14 w3 - 168 w4 - 29.7 w5 - 0.361 w6 - 33 w7
       - b + ksi130 >= 1
 c132: - 9 w0 - 122 w1 - 56 w2 - 33.3 w5 - 1.114 w6 - 33 w7 - b + ksi131 >= 1
 c133: - 3 w0 - 170 w1 - 64 w2 - 37 w3 - 225 w4 - 34.5 w5 - 0.356 w6 - 30 w7
       - b + ksi132 >= 1
 c134: 8 w0 + 84 w1 + 74 w2 + 31 w3 + 38.3 w5 + 0.457 w6 + 39 w7 + b + ksi133
       >= 1
 c135: 2 w0 + 96 w1 + 68 w2 + 13 w3 + 49 w4 + 21.1 w5 + 0.647 w6 + 26 w7 + b
       + ksi134 >= 1
 c136: 2 w0 + 125 w1 + 60 w2 + 20 w3 + 140 w4 + 33.8 w5 + 0.088 w6 + 31 w7 + b
       + ksi135 >= 1
 c137: 100 w1 + 70 w2 + 26 w3 + 50 w4 + 30.8 w5 + 0.597 w6 + 21 w7 + b + ksi136
       >= 1
 c138: 93 w1 + 60 w2 + 25 w3 + 92 w4 + 28.7 w5 + 0.532 w6 + 22 w7 + b + ksi137
       >= 1
 c139: 129 w1 + 80 w2 + 31.2 w5 + 0.703 w6 + 29 w7 + b + ksi138 >= 1
 c140: 5 w0 + 105 w1 + 72 w2 + 29 w3 + 325 w4 + 36.9 w5 + 0.159 w6 + 28 w7 + b
       + ksi139 >= 1
 c141: 3 w0 + 128 w1 + 78 w2 + 21.1 w5 + 0.268 w6 + 55 w7 + b + ksi140 >= 1
 c142: 5 w0 + 106 w1 + 82 w2 + 30 w3 + 39.5 w5 + 0.286 w6 + 38 w7 + b + ksi141
       >= 1
 c143: 2 w0 + 108 w1 + 52 w2 + 26 w3 + 63 w4 + 32.5 w5 + 0.318 w6 + 22 w7 + b
       + ksi142 >= 1
 c144: - 10 w0 - 108 w1 - 66 w2 - 32.4 w5 - 0.272 w6 - 42 w7 - b + ksi143 >= 1
 c145: 4 w0 + 154 w1 + 62 w2 + 31 w3 + 284 w4 + 32.8 w5 + 0.237 w6 + 23 w7 + b
       + ksi144 >= 1
 c146: 102 w1 + 75 w2 + 23 w3 + 0.572 w6 + 21 w7 + b + ksi145 >= 1
 c147: 9 w0 + 57 w1 + 80 w2 + 37 w3 + 32.8 w5 + 0.096 w6 + 41 w7 + b + ksi146
       >= 1
 c148: 2 w0 + 106 w1 + 64 w2 + 35 w3 + 119 w4 + 30.5 w5 + 1.4 w6 + 34 w7 + b
       + ksi147 >= 1
 c149: 5 w0 + 147 w1 + 78 w2 + 33.7 w5 + 0.218 w6 + 65 w7 + b + ksi148 >= 1
 c150: 2 w0 + 90 w1 + 70 w2 + 17 w3 + 27.3 w5 + 0.085 w6 + 22 w7 + b + ksi149
       >= 1
 c151: w0 + 136 w1 + 74 w2 + 50 w3 + 204 w4 + 37.4 w5 + 0.399 w6 + 24 w7 + b
       + ksi150 >= 1
 c152: 4 w0 + 114 w1 + 65 w2 + 21.9 w5 + 0.432 w6 + 37 w7 + b + ksi151 >= 1
 c153: - 9 w0 - 156 w1 - 86 w2 - 28 w3 - 155 w4 - 34.3 w5 - 1.189 w6 - 42 w7
       - b + ksi152 >= 1
 c154: w0 + 153 w1 + 82 w2 + 42 w3 + 485 w4 + 40.6 w5 + 0.687 w6 + 23 w7 + b
       + ksi153 >= 1
 c155: - 8 w0 - 188 w1 - 78 w2 - 47.9 w5 - 0.137 w6 - 43 w7 - b + ksi154 >= 1
 c156: - 7 w0 - 152 w1 - 88 w2 - 44 w3 - 50 w5 - 0.337 w6 - 36 w7 - b + ksi155
       >= 1
 c157: 2 w0 + 99 w1 + 52 w2 + 15 w3 + 94 w4 + 24.6 w5 + 0.637 w6 + 21 w7 + b
       + ksi156 >= 1
 c158: w0 + 109 w1 + 56 w2 + 21 w3 + 135 w4 + 25.2 w5 + 0.833 w6 + 23 w7 + b
       + ksi157 >= 1
 c159: 2 w0 + 88 w1 + 74 w2 + 19 w3 + 53 w4 + 29 w5 + 0.229 w6 + 22 w7 + b
       + ksi158 >= 1
 c160: - 17 w0 - 163 w1 - 72 w2 - 41 w3 - 114 w4 - 40.9 w5 - 0.817 w6 - 47 w7
       - b + ksi159 >= 1
 c161: 4 w0 + 151 w1 + 90 w2 + 38 w3 + 29.7 w5 + 0.294 w6 + 36 w7 + b + ksi160
       >= 1
 c162: 7 w0 + 102 w1 + 74 w2 + 40 w3 + 105 w4 + 37.2 w5 + 0.204 w6 + 45 w7 + b
       + ksi161 >= 1
 c163: 114 w1 + 80 w2 + 34 w3 + 285 w4 + 44.2 w5 + 0.167 w6 + 27 w7 + b
       + ksi162 >= 1
 c164: 2 w0 + 100 w1 + 64 w2 + 23 w3 + 29.7 w5 + 0.368 w6 + 21 w7 + b + ksi163
       >= 1
 c165: - 131 w1 - 88 w2 - 31.6 w5 - 0.743 w6 - 32 w7 - b + ksi164 >= 1
 c166: - 6 w0 - 104 w1 - 74 w2 - 18 w3 - 156 w4 - 29.9 w5 - 0.722 w6 - 41 w7
       - b + ksi165 >= 1
 c167: 3 w0 + 148 w1 + 66 w2 + 25 w3 + 32.5 w5 + 0.256 w6 + 22 w7 + b + ksi166
       >= 1
 c168: 4 w0 + 120 w1 + 68 w2 + 29.6 w5 + 0.709 w6 + 34 w7 + b + ksi167 >= 1
 c169: 4 w0 + 110 w1 + 66 w2 + 31.9 w5 + 0.471 w6 + 29 w7 + b + ksi168 >= 1
 c170: 3 w0 + 111 w1 + 90 w2 + 12 w3 + 78 w4 + 28.4 w5 + 0.495 w6 + 29 w7 + b
       + ksi169 >= 1
 c171: - 6 w0 - 102 w1 - 82 w2 - 30.8 w5 - 0.18 w6 - 36 w7 - b + ksi170 >= 1
 c172: - 6 w0 - 134 w1 - 70 w2 - 23 w3 - 130 w4 - 35.4 w5 - 0.542 w6 - 29 w7
       - b + ksi171 >= 1
 c173: 2 w0 + 87 w1 + 23 w3 + 28.9 w5 + 0.773 w6 + 25 w7 + b + ksi172 >= 1
 c174: w0 + 79 w1 + 60 w2 + 42 w3 + 48 w4 + 43.5 w5 + 0.678 w6 + 23 w7 + b
       + ksi173 >= 1
 c175: 2 w0 + 75 w1 + 64 w2 + 24 w3 + 55 w4 + 29.7 w5 + 0.37 w6 + 33 w7 + b
       + ksi174 >= 1
 c176: - 8 w0 - 179 w1 - 72 w2 - 42 w3 - 130 w4 - 32.7 w5 - 0.719 w6 - 36 w7
       - b + ksi175 >= 1
 c177: 6 w0 + 85 w1 + 78 w2 + 31.2 w5 + 0.382 w6 + 42 w7 + b + ksi176 >= 1
 c178: - 129 w1 - 110 w2 - 46 w3 - 130 w4 - 67.1 w5 - 0.319 w6 - 26 w7 - b
       + ksi177 >= 1
 c179: 5 w0 + 143 w1 + 78 w2 + 45 w5 + 0.19 w6 + 47 w7 + b + ksi178 >= 1
 c180: - 5 w0 - 130 w1 - 82 w2 - 39.1 w5 - 0.956 w6 - 37 w7 - b + ksi179 >= 1
 c181: 6 w0 + 87 w1 + 80 w2 + 23.2 w5 + 0.084 w6 + 32 w7 + b + ksi180 >= 1
 c182: 119 w1 + 64 w2 + 18 w3 + 92 w4 + 34.9 w5 + 0.725 w6 + 23 w7 + b + ksi181
       >= 1
 c183: w0 + 74 w2 + 20 w3 + 23 w4 + 27.7 w5 + 0.299 w6 + 21 w7 + b + ksi182
       >= 1
 c184: 5 w0 + 73 w1 + 60 w2 + 26.8 w5 + 0.268 w6 + 27 w7 + b + ksi183 >= 1
 c185: 4 w0 + 141 w1 + 74 w2 + 27.6 w5 + 0.244 w6 + 40 w7 + b + ksi184 >= 1
 c186: - 7 w0 - 194 w1 - 68 w2 - 28 w3 - 35.9 w5 - 0.745 w6 - 41 w7 - b
       + ksi185 >= 1
 c187: - 8 w0 - 181 w1 - 68 w2 - 36 w3 - 495 w4 - 30.1 w5 - 0.615 w6 - 60 w7
       - b + ksi186 >= 1
 c188: - w0 - 128 w1 - 98 w2 - 41 w3 - 58 w4 - 32 w5 - 1.321 w6 - 33 w7 - b
       + ksi187 >= 1
 c189: - 8 w0 - 109 w1 - 76 w2 - 39 w3 - 114 w4 - 27.9 w5 - 0.64 w6 - 31 w7 - b
       + ksi188 >= 1
 c190: - 5 w0 - 139 w1 - 80 w2 - 35 w3 - 160 w4 - 31.6 w5 - 0.361 w6 - 25 w7
       - b + ksi189 >= 1
 c191: 3 w0 + 111 w1 + 62 w2 + 22.6 w5 + 0.142 w6 + 21 w7 + b + ksi190 >= 1
 c192: 9 w0 + 123 w1 + 70 w2 + 44 w3 + 94 w4 + 33.1 w5 + 0.374 w6 + 40 w7 + b
       + ksi191 >= 1
 c193: - 7 w0 - 159 w1 - 66 w2 - 30.4 w5 - 0.383 w6 - 36 w7 - b + ksi192 >= 1
 c194: - 11 w0 - 135 w1 - 52.3 w5 - 0.578 w6 - 40 w7 - b + ksi193 >= 1
 c195: 8 w0 + 85 w1 + 55 w2 + 20 w3 + 24.4 w5 + 0.136 w6 + 42 w7 + b + ksi194
       >= 1
 c196: - 5 w0 - 158 w1 - 84 w2 - 41 w3 - 210 w4 - 39.4 w5 - 0.395 w6 - 29 w7
       - b + ksi195 >= 1
 c197: w0 + 105 w1 + 58 w2 + 24.3 w5 + 0.187 w6 + 21 w7 + b + ksi196 >= 1
 c198: - 3 w0 - 107 w1 - 62 w2 - 13 w3 - 48 w4 - 22.9 w5 - 0.678 w6 - 23 w7 - b
       + ksi197 >= 1
 c199: - 4 w0 - 109 w1 - 64 w2 - 44 w3 - 99 w4 - 34.8 w5 - 0.905 w6 - 26 w7 - b
       + ksi198 >= 1
 c200: - 4 w0 - 148 w1 - 60 w2 - 27 w3 - 318 w4 - 30.9 w5 - 0.15 w6 - 29 w7 - b
       + ksi199 >= 1
 c201: 113 w1 + 80 w2 + 16 w3 + 31 w5 + 0.874 w6 + 21 w7 + b + ksi200 >= 1
 c202: w0 + 138 w1 + 82 w2 + 40.1 w5 + 0.236 w6 + 28 w7 + b + ksi201 >= 1
 c203: 108 w1 + 68 w2 + 20 w3 + 27.3 w5 + 0.787 w6 + 32 w7 + b + ksi202 >= 1
 c204: 2 w0 + 99 w1 + 70 w2 + 16 w3 + 44 w4 + 20.4 w5 + 0.235 w6 + 27 w7 + b
       + ksi203 >= 1
 c205: 6 w0 + 103 w1 + 72 w2 + 32 w3 + 190 w4 + 37.7 w5 + 0.324 w6 + 55 w7 + b
       + ksi204 >= 1
 c206: 5 w0 + 111 w1 + 72 w2 + 28 w3 + 23.9 w5 + 0.407 w6 + 27 w7 + b + ksi205
       >= 1
 c207: - 8 w0 - 196 w1 - 76 w2 - 29 w3 - 280 w4 - 37.5 w5 - 0.605 w6 - 57 w7
       - b + ksi206 >= 1
 c208: - 5 w0 - 162 w1 - 104 w2 - 37.7 w5 - 0.151 w6 - 52 w7 - b + ksi207 >= 1
 c209: w0 + 96 w1 + 64 w2 + 27 w3 + 87 w4 + 33.2 w5 + 0.289 w6 + 21 w7 + b
       + ksi208 >= 1
 c210: - 7 w0 - 184 w1 - 84 w2 - 33 w3 - 35.5 w5 - 0.355 w6 - 41 w7 - b
       + ksi209 >= 1
 c211: 2 w0 + 81 w1 + 60 w2 + 22 w3 + 27.7 w5 + 0.29 w6 + 25 w7 + b + ksi210
       >= 1
 c212: 147 w1 + 85 w2 + 54 w3 + 42.8 w5 + 0.375 w6 + 24 w7 + b + ksi211 >= 1
 c213: 7 w0 + 179 w1 + 95 w2 + 31 w3 + 34.2 w5 + 0.164 w6 + 60 w7 + b + ksi212
       >= 1
 c214: - 140 w1 - 65 w2 - 26 w3 - 130 w4 - 42.6 w5 - 0.431 w6 - 24 w7 - b
       + ksi213 >= 1
 c215: - 9 w0 - 112 w1 - 82 w2 - 32 w3 - 175 w4 - 34.2 w5 - 0.26 w6 - 36 w7 - b
       + ksi214 >= 1
 c216: - 12 w0 - 151 w1 - 70 w2 - 40 w3 - 271 w4 - 41.8 w5 - 0.742 w6 - 38 w7
       - b + ksi215 >= 1
 c217: - 5 w0 - 109 w1 - 62 w2 - 41 w3 - 129 w4 - 35.8 w5 - 0.514 w6 - 25 w7
       - b + ksi216 >= 1
 c218: 6 w0 + 125 w1 + 68 w2 + 30 w3 + 120 w4 + 30 w5 + 0.464 w6 + 32 w7 + b
       + ksi217 >= 1
 c219: - 5 w0 - 85 w1 - 74 w2 - 22 w3 - 29 w5 - 1.224 w6 - 32 w7 - b + ksi218
       >= 1
 c220: - 5 w0 - 112 w1 - 66 w2 - 37.8 w5 - 0.261 w6 - 41 w7 - b + ksi219 >= 1
 c221: - 177 w1 - 60 w2 - 29 w3 - 478 w4 - 34.6 w5 - 1.072 w6 - 21 w7 - b
       + ksi220 >= 1
 c222: - 2 w0 - 158 w1 - 90 w2 - 31.6 w5 - 0.805 w6 - 66 w7 - b + ksi221 >= 1
 c223: 7 w0 + 119 w1 + 25.2 w5 + 0.209 w6 + 37 w7 + b + ksi222 >= 1
 c224: 7 w0 + 142 w1 + 60 w2 + 33 w3 + 190 w4 + 28.8 w5 + 0.687 w6 + 61 w7 + b
       + ksi223 >= 1
 c225: w0 + 100 w1 + 66 w2 + 15 w3 + 56 w4 + 23.6 w5 + 0.666 w6 + 26 w7 + b
       + ksi224 >= 1
 c226: w0 + 87 w1 + 78 w2 + 27 w3 + 32 w4 + 34.6 w5 + 0.101 w6 + 22 w7 + b
       + ksi225 >= 1
 c227: 101 w1 + 76 w2 + 35.7 w5 + 0.198 w6 + 26 w7 + b + ksi226 >= 1
 c228: - 3 w0 - 162 w1 - 52 w2 - 38 w3 - 37.2 w5 - 0.652 w6 - 24 w7 - b
       + ksi227 >= 1
 c229: 4 w0 + 197 w1 + 70 w2 + 39 w3 + 744 w4 + 36.7 w5 + 2.329 w6 + 31 w7 + b
       + ksi228 >= 1
 c230: 117 w1 + 80 w2 + 31 w3 + 53 w4 + 45.2 w5 + 0.089 w6 + 24 w7 + b + ksi229
       >= 1
 c231: - 4 w0 - 142 w1 - 86 w2 - 44 w5 - 0.645 w6 - 22 w7 - b + ksi230 >= 1
 c232: - 6 w0 - 134 w1 - 80 w2 - 37 w3 - 370 w4 - 46.2 w5 - 0.238 w6 - 46 w7
       - b + ksi231 >= 1
 c233: w0 + 79 w1 + 80 w2 + 25 w3 + 37 w4 + 25.4 w5 + 0.583 w6 + 22 w7 + b
       + ksi232 >= 1
 c234: 4 w0 + 122 w1 + 68 w2 + 35 w5 + 0.394 w6 + 29 w7 + b + ksi233 >= 1
 c235: 3 w0 + 74 w1 + 68 w2 + 28 w3 + 45 w4 + 29.7 w5 + 0.293 w6 + 23 w7 + b
       + ksi234 >= 1
 c236: - 4 w0 - 171 w1 - 72 w2 - 43.6 w5 - 0.479 w6 - 26 w7 - b + ksi235 >= 1
 c237: - 7 w0 - 181 w1 - 84 w2 - 21 w3 - 192 w4 - 35.9 w5 - 0.586 w6 - 51 w7
       - b + ksi236 >= 1
 c238: - 179 w1 - 90 w2 - 27 w3 - 44.1 w5 - 0.686 w6 - 23 w7 - b + ksi237 >= 1
 c239: - 9 w0 - 164 w1 - 84 w2 - 21 w3 - 30.8 w5 - 0.831 w6 - 32 w7 - b
       + ksi238 >= 1
 c240: 104 w1 + 76 w2 + 18.4 w5 + 0.582 w6 + 27 w7 + b + ksi239 >= 1
 c241: w0 + 91 w1 + 64 w2 + 24 w3 + 29.2 w5 + 0.192 w6 + 21 w7 + b + ksi240
       >= 1
 c242: 4 w0 + 91 w1 + 70 w2 + 32 w3 + 88 w4 + 33.1 w5 + 0.446 w6 + 22 w7 + b
       + ksi241 >= 1
 c243: - 3 w0 - 139 w1 - 54 w2 - 25.6 w5 - 0.402 w6 - 22 w7 - b + ksi242 >= 1
 c244: - 6 w0 - 119 w1 - 50 w2 - 22 w3 - 176 w4 - 27.1 w5 - 1.318 w6 - 33 w7
       - b + ksi243 >= 1
 c245: 2 w0 + 146 w1 + 76 w2 + 35 w3 + 194 w4 + 38.2 w5 + 0.329 w6 + 29 w7 + b
       + ksi244 >= 1
 c246: - 9 w0 - 184 w1 - 85 w2 - 15 w3 - 30 w5 - 1.213 w6 - 49 w7 - b + ksi245
       >= 1
 c247: 10 w0 + 122 w1 + 68 w2 + 31.2 w5 + 0.258 w6 + 41 w7 + b + ksi246 >= 1
 c248: 165 w1 + 90 w2 + 33 w3 + 680 w4 + 52.3 w5 + 0.427 w6 + 23 w7 + b
       + ksi247 >= 1
 c249: 9 w0 + 124 w1 + 70 w2 + 33 w3 + 402 w4 + 35.4 w5 + 0.282 w6 + 34 w7 + b
       + ksi248 >= 1
 c250: w0 + 111 w1 + 86 w2 + 19 w3 + 30.1 w5 + 0.143 w6 + 23 w7 + b + ksi249
       >= 1
 c251: 9 w0 + 106 w1 + 52 w2 + 31.2 w5 + 0.38 w6 + 42 w7 + b + ksi250 >= 1
 c252: 2 w0 + 129 w1 + 84 w2 + 28 w5 + 0.284 w6 + 27 w7 + b + ksi251 >= 1
 c253: 2 w0 + 90 w1 + 80 w2 + 14 w3 + 55 w4 + 24.4 w5 + 0.249 w6 + 24 w7 + b
       + ksi252 >= 1
 c254: 86 w1 + 68 w2 + 32 w3 + 35.8 w5 + 0.238 w6 + 25 w7 + b + ksi253 >= 1
 c255: - 12 w0 - 92 w1 - 62 w2 - 7 w3 - 258 w4 - 27.6 w5 - 0.926 w6 - 44 w7 - b
       + ksi254 >= 1
 c256: - w0 - 113 w1 - 64 w2 - 35 w3 - 33.6 w5 - 0.543 w6 - 21 w7 - b + ksi255
       >= 1
 c257: 3 w0 + 111 w1 + 56 w2 + 39 w3 + 30.1 w5 + 0.557 w6 + 30 w7 + b + ksi256
       >= 1
 c258: 2 w0 + 114 w1 + 68 w2 + 22 w3 + 28.7 w5 + 0.092 w6 + 25 w7 + b + ksi257
       >= 1
 c259: w0 + 193 w1 + 50 w2 + 16 w3 + 375 w4 + 25.9 w5 + 0.655 w6 + 24 w7 + b
       + ksi258 >= 1
 c260: - 11 w0 - 155 w1 - 76 w2 - 28 w3 - 150 w4 - 33.3 w5 - 1.353 w6 - 51 w7
       - b + ksi259 >= 1
 c261: 3 w0 + 191 w1 + 68 w2 + 15 w3 + 130 w4 + 30.9 w5 + 0.299 w6 + 34 w7 + b
       + ksi260 >= 1
 c262: - 3 w0 - 141 w1 - 30 w5 - 0.761 w6 - 27 w7 - b + ksi261 >= 1
 c263: 4 w0 + 95 w1 + 70 w2 + 32 w3 + 32.1 w5 + 0.612 w6 + 24 w7 + b + ksi262
       >= 1
 c264: 3 w0 + 142 w1 + 80 w2 + 15 w3 + 32.4 w5 + 0.2 w6 + 63 w7 + b + ksi263
       >= 1
 c265: - 4 w0 - 123 w1 - 62 w2 - 32 w5 - 0.226 w6 - 35 w7 - b + ksi264 >= 1
 c266: 5 w0 + 96 w1 + 74 w2 + 18 w3 + 67 w4 + 33.6 w5 + 0.997 w6 + 43 w7 + b
       + ksi265 >= 1
 c267: - 138 w1 - 36.3 w5 - 0.933 w6 - 25 w7 - b + ksi266 >= 1
 c268: 2 w0 + 128 w1 + 64 w2 + 42 w3 + 40 w5 + 1.101 w6 + 24 w7 + b + ksi267
       >= 1
 c269: 102 w1 + 52 w2 + 25.1 w5 + 0.078 w6 + 21 w7 + b + ksi268 >= 1
 c270: - 2 w0 - 146 w1 - 27.5 w5 - 0.24 w6 - 28 w7 - b + ksi269 >= 1
 c271: - 10 w0 - 101 w1 - 86 w2 - 37 w3 - 45.6 w5 - 1.136 w6 - 38 w7 - b
       + ksi270 >= 1
 c272: 2 w0 + 108 w1 + 62 w2 + 32 w3 + 56 w4 + 25.2 w5 + 0.128 w6 + 21 w7 + b
       + ksi271 >= 1
 c273: 3 w0 + 122 w1 + 78 w2 + 23 w5 + 0.254 w6 + 40 w7 + b + ksi272 >= 1
 c274: w0 + 71 w1 + 78 w2 + 50 w3 + 45 w4 + 33.2 w5 + 0.422 w6 + 21 w7 + b
       + ksi273 >= 1
 c275: 13 w0 + 106 w1 + 70 w2 + 34.2 w5 + 0.251 w6 + 52 w7 + b + ksi274 >= 1
 c276: 2 w0 + 100 w1 + 70 w2 + 52 w3 + 57 w4 + 40.5 w5 + 0.677 w6 + 25 w7 + b
       + ksi275 >= 1
 c277: - 7 w0 - 106 w1 - 60 w2 - 24 w3 - 26.5 w5 - 0.296 w6 - 29 w7 - b
       + ksi276 >= 1
 c278: 104 w1 + 64 w2 + 23 w3 + 116 w4 + 27.8 w5 + 0.454 w6 + 23 w7 + b
       + ksi277 >= 1
 c279: 5 w0 + 114 w1 + 74 w2 + 24.9 w5 + 0.744 w6 + 57 w7 + b + ksi278 >= 1
 c280: 2 w0 + 108 w1 + 62 w2 + 10 w3 + 278 w4 + 25.3 w5 + 0.881 w6 + 22 w7 + b
       + ksi279 >= 1
 c281: - 146 w1 - 70 w2 - 37.9 w5 - 0.334 w6 - 28 w7 - b + ksi280 >= 1
 c282: 10 w0 + 129 w1 + 76 w2 + 28 w3 + 122 w4 + 35.9 w5 + 0.28 w6 + 39 w7 + b
       + ksi281 >= 1
 c283: 7 w0 + 133 w1 + 88 w2 + 15 w3 + 155 w4 + 32.4 w5 + 0.262 w6 + 37 w7 + b
       + ksi282 >= 1
 c284: - 7 w0 - 161 w1 - 86 w2 - 30.4 w5 - 0.165 w6 - 47 w7 - b + ksi283 >= 1
 c285: - 2 w0 - 108 w1 - 80 w2 - 27 w5 - 0.259 w6 - 52 w7 - b + ksi284 >= 1
 c286: 7 w0 + 136 w1 + 74 w2 + 26 w3 + 135 w4 + 26 w5 + 0.647 w6 + 51 w7 + b
       + ksi285 >= 1
 c287: 5 w0 + 155 w1 + 84 w2 + 44 w3 + 545 w4 + 38.7 w5 + 0.619 w6 + 34 w7 + b
       + ksi286 >= 1
 c288: - w0 - 119 w1 - 86 w2 - 39 w3 - 220 w4 - 45.6 w5 - 0.808 w6 - 29 w7 - b
       + ksi287 >= 1
 c289: 4 w0 + 96 w1 + 56 w2 + 17 w3 + 49 w4 + 20.8 w5 + 0.34 w6 + 26 w7 + b
       + ksi288 >= 1
 c290: 5 w0 + 108 w1 + 72 w2 + 43 w3 + 75 w4 + 36.1 w5 + 0.263 w6 + 33 w7 + b
       + ksi289 >= 1
 c291: 78 w1 + 88 w2 + 29 w3 + 40 w4 + 36.9 w5 + 0.434 w6 + 21 w7 + b + ksi290
       >= 1
 c292: - 107 w1 - 62 w2 - 30 w3 - 74 w4 - 36.6 w5 - 0.757 w6 - 25 w7 - b
       + ksi291 >= 1
 c293: - 2 w0 - 128 w1 - 78 w2 - 37 w3 - 182 w4 - 43.3 w5 - 1.224 w6 - 31 w7
       - b + ksi292 >= 1
 c294: - w0 - 128 w1 - 48 w2 - 45 w3 - 194 w4 - 40.5 w5 - 0.613 w6 - 24 w7 - b
       + ksi293 >= 1
 c295: 161 w1 + 50 w2 + 21.9 w5 + 0.254 w6 + 65 w7 + b + ksi294 >= 1
 c296: 6 w0 + 151 w1 + 62 w2 + 31 w3 + 120 w4 + 35.5 w5 + 0.692 w6 + 28 w7 + b
       + ksi295 >= 1
 c297: - 2 w0 - 146 w1 - 70 w2 - 38 w3 - 360 w4 - 28 w5 - 0.337 w6 - 29 w7 - b
       + ksi296 >= 1
 c298: 126 w1 + 84 w2 + 29 w3 + 215 w4 + 30.7 w5 + 0.52 w6 + 24 w7 + b + ksi297
       >= 1
 c299: - 14 w0 - 100 w1 - 78 w2 - 25 w3 - 184 w4 - 36.6 w5 - 0.412 w6 - 46 w7
       - b + ksi298 >= 1
 c300: 8 w0 + 112 w1 + 72 w2 + 23.6 w5 + 0.84 w6 + 58 w7 + b + ksi299 >= 1
 c301: - 167 w1 - 32.3 w5 - 0.839 w6 - 30 w7 - b + ksi300 >= 1
 c302: - 2 w0 - 144 w1 - 58 w2 - 33 w3 - 135 w4 - 31.6 w5 - 0.422 w6 - 25 w7
       - b + ksi301 >= 1
 c303: 5 w0 + 77 w1 + 82 w2 + 41 w3 + 42 w4 + 35.8 w5 + 0.156 w6 + 35 w7 + b
       + ksi302 >= 1
 c304: - 5 w0 - 115 w1 - 98 w2 - 52.9 w5 - 0.209 w6 - 28 w7 - b + ksi303 >= 1
 c305: 3 w0 + 150 w1 + 76 w2 + 21 w5 + 0.207 w6 + 37 w7 + b + ksi304 >= 1
 c306: 2 w0 + 120 w1 + 76 w2 + 37 w3 + 105 w4 + 39.7 w5 + 0.215 w6 + 29 w7 + b
       + ksi305 >= 1
 c307: - 10 w0 - 161 w1 - 68 w2 - 23 w3 - 132 w4 - 25.5 w5 - 0.326 w6 - 47 w7
       - b + ksi306 >= 1
 c308: 137 w1 + 68 w2 + 14 w3 + 148 w4 + 24.8 w5 + 0.143 w6 + 21 w7 + b
       + ksi307 >= 1
 c309: - 128 w1 - 68 w2 - 19 w3 - 180 w4 - 30.5 w5 - 1.391 w6 - 25 w7 - b
       + ksi308 >= 1
 c310: - 2 w0 - 124 w1 - 68 w2 - 28 w3 - 205 w4 - 32.9 w5 - 0.875 w6 - 30 w7
       - b + ksi309 >= 1
Bounds
-1 <= b <= 1
End
